(set-info :smt-lib-version 2.6)
(set-logic LIA)
(set-info :source "|
Generated by the tool Ultimate Automizer [1,2] which implements
an automata theoretic approach [3] to software verification.

This SMT script belongs to a set of SMT scripts that was generated by
applying Ultimate Automizer to benchmarks [4] from the SV-COMP 2019 [5,6].
This script might _not_ contain all SMT commands that are used by
Ultimate Automizer. In order to satisfy the restrictions of
the SMT-COMP we have to drop e.g., the commands for getting
values (resp. models), unsatisfiable cores and interpolants.

2019-04-27, Matthias Heizmann (heizmann@informatik.uni-freiburg.de)

[1] https://ultimate.informatik.uni-freiburg.de/automizer/
[2] Matthias Heizmann, Yu-Fang Chen, Daniel Dietsch, Marius Greitschus,
     Jochen Hoenicke, Yong Li, Alexander Nutz, Betim Musa, Christian
     Schilling, Tanja Schindler, Andreas Podelski: Ultimate Automizer
     and the Search for Perfect Interpolants - (Competition Contribution).
     TACAS (2) 2018: 447-451
[3] Matthias Heizmann, Jochen Hoenicke, Andreas Podelski: Software Model
     Checking for People Who Love Automata. CAV 2013:36-52
[4] https://github.com/sosy-lab/sv-benchmarks
[5] Dirk Beyer: Automatic Verification of C and Java Programs: SV-COMP 2019.
     TACAS (3) 2019: 133-155
[6] https://sv-comp.sosy-lab.org/2019/
|")
(set-info :license "https://creativecommons.org/licenses/by/4.0/")
(set-info :category "industrial")
(set-info :status sat)
(declare-fun c_main_~i~0 () Int)
(assert (or (exists ((v_main_~c~0_17 Int) (v_main_~c~0_19 Int) (v_main_~c~0_18 Int)) (let ((.cse4 (mod v_main_~c~0_17 256))) (let ((.cse5 (mod v_main_~c~0_18 256)) (.cse3 (mod (+ .cse4 4294967248) 4294967296))) (let ((.cse2 (mod (+ .cse5 (* 10 .cse3) 4294967248) 4294967296)) (.cse1 (mod v_main_~c~0_19 256))) (let ((.cse0 (mod (+ (* 10 .cse2) .cse1 4294967248) 4294967296))) (and (<= .cse0 (+ c_main_~i~0 4294967296)) (<= .cse1 57) (<= .cse2 2147483647) (<= .cse3 2147483647) (<= v_main_~c~0_17 127) (<= .cse4 57) (<= 48 .cse1) (< 2147483647 .cse0) (<= .cse5 57) (<= 0 (+ v_main_~c~0_17 128)) (<= 48 .cse5) (<= 48 .cse4))))))) (exists ((v_main_~c~0_17 Int) (v_main_~c~0_19 Int) (v_main_~c~0_18 Int)) (let ((.cse10 (mod v_main_~c~0_17 256))) (let ((.cse11 (mod v_main_~c~0_18 256)) (.cse9 (mod (+ .cse10 4294967248) 4294967296))) (let ((.cse8 (mod (+ .cse11 (* 10 .cse9) 4294967248) 4294967296)) (.cse7 (mod v_main_~c~0_19 256))) (let ((.cse6 (mod (+ (* 10 .cse8) .cse7 4294967248) 4294967296))) (and (<= .cse6 2147483647) (<= .cse7 57) (<= .cse8 2147483647) (<= .cse9 2147483647) (<= v_main_~c~0_17 127) (<= .cse10 57) (<= 48 .cse7) (<= .cse11 57) (<= 0 (+ v_main_~c~0_17 128)) (<= 48 .cse11) (<= 48 .cse10) (<= .cse6 c_main_~i~0)))))))))
(assert (not (exists ((v_main_~c~0_17 Int) (v_main_~c~0_18 Int)) (let ((.cse2 (mod v_main_~c~0_17 256))) (let ((.cse3 (mod v_main_~c~0_18 256)) (.cse1 (mod (+ .cse2 4294967248) 4294967296))) (let ((.cse0 (mod (+ .cse3 (* 10 .cse1) 4294967248) 4294967296))) (and (<= .cse0 2147483647) (<= .cse1 2147483647) (<= v_main_~c~0_17 127) (= c_main_~i~0 .cse0) (<= .cse2 57) (<= .cse3 57) (<= 0 (+ v_main_~c~0_17 128)) (<= 48 .cse3) (<= 48 .cse2))))))))
(check-sat)
(exit)
